(set-info :Origin "This instance was generated by: BanditFuzz-- an RL fuzzer for SMT solvers" )
(set-info :Author "Joe Scott, Fed Mora, Vijay Ganesh" )
(set-info :Contact "Joe Scott, joseph.scott@uwaterloo.ca")
(set-logic QF_BV)
(declare-const bool_0 Bool)
(declare-const bool_1 Bool)
(declare-const bool_2 Bool)
(declare-const bool_3 Bool)
(declare-const bool_4 Bool)
(declare-const bv_0 (_ BitVec 32))
(declare-const bv_1 (_ BitVec 32))
(declare-const bv_2 (_ BitVec 32))
(declare-const bv_3 (_ BitVec 32))
(declare-const bv_4 (_ BitVec 32))
(assert (xor (bvslt (bvshl bv_2 #x0d552d0e ) (bvurem bv_1 #xc7927568 )) (bvsge (bvnor #x35a7964e  bv_4) (bvlshr bv_4 #xf33c8f1d ))))
(assert (bvult (bvsmod (bvsdiv #x6348dc35  bv_2) (bvudiv bv_1 bv_0)) (bvxor (bvmul bv_4 #x1954aa00 ) (bvurem #xfe8d84a0  #x818e3955 ))))
(assert (=> (bvuge (bvsdiv #x8e99f690  #x06abb521 ) (bvsrem #x01d6c76c  bv_0)) (bvule (bvashr bv_2 bv_3) (bvsub #x30deb8ec  bv_2))))
(assert (xor (bvsge (bvlshr bv_3 #x630426d9 ) (bvor bv_3 #xa7291f96 )) (bvugt (bvashr bv_4 #x0da6b3ea ) (bvurem #x7da77539  bv_0))))
(assert (bvsge (bvashr (bvurem bv_2 #xa6f8ae50 ) (bvudiv bv_2 #xed5a57bc )) (bvmul (bvshl #x6ff38911  #xb9355bf8 ) (bvsub bv_3 #xae0747f6 ))))
(check-sat)
(exit)
